Simon32/MILP/sol/7Round_2047.sol
# Objective value = 16.000000000000014
xobj 16.000000000000014
L1_r1 -0.0
L8_r1 -0.0
v_AfterAnd_1_0 -0.0
L2_r1 -0.0
L9_r1 0.0
v_AfterAnd_1_1 0.0
L3_r1 0.0
L10_r1 -0.0
v_AfterAnd_1_2 0.0
L4_r1 1.0
L11_r1 0.0
v_AfterAnd_1_3 1.0
L5_r1 -0.0
L12_r1 -0.0
v_AfterAnd_1_4 -0.0
L6_r1 -0.0
L13_r1 0.0
v_AfterAnd_1_5 -0.0
L7_r1 0.0
L14_r1 1.0
v_AfterAnd_1_6 -0.0
L15_r1 -0.0
v_AfterAnd_1_7 -0.0
L0_r1 0.0
v_AfterAnd_1_8 -0.0
v_AfterAnd_1_9 0.0
v_AfterAnd_1_10 -0.0
v_AfterAnd_1_11 0.0
v_AfterAnd_1_12 1.0
v_AfterAnd_1_13 0.0
v_AfterAnd_1_14 0.0
v_AfterAnd_1_15 -0.0
S0_r1 -0.0
S1_r1 -0.0
S2_r1 -0.0
S3_r1 1.0
S4_r1 0.0
S5_r1 0.0
S6_r1 1.0
S7_r1 0.0
S8_r1 -0.0
S9_r1 -0.0
S10_r1 -0.0
S11_r1 -0.0
S12_r1 1.0
S13_r1 1.0
S14_r1 0.0
S15_r1 0.0
R0_r1 -0.0
L0_r2 -0.0
R1_r1 0.0
L1_r2 0.0
R2_r1 1.0
L2_r2 -0.0
R3_r1 1.0
L3_r2 0.0
R4_r1 0.0
L4_r2 0.0
R5_r1 -3.657568075570655e-15
L5_r2 -3.657568075570655e-15
R6_r1 1.0000000000000004
L6_r2 1.0000000000000004
R7_r1 -0.0
L7_r2 -0.0
R8_r1 0.0
L8_r2 0.0
R9_r1 0.0
L9_r2 0.0
R10_r1 0.0
L10_r2 0.0
R11_r1 -0.0
L11_r2 -0.0
R12_r1 -0.0
L12_r2 0.0
R13_r1 -0.0
L13_r2 0.0
R14_r1 0.0
L14_r2 -0.0
R15_r1 -1.5851517629370295e-15
L15_r2 -1.5851517629370295e-15
R0_r2 0.0
R1_r2 -0.0
R2_r2 -0.0
R3_r2 0.0
R4_r2 1.0
R5_r2 -0.0
R6_r2 -0.0
R7_r2 0.0
R8_r2 -0.0
R9_r2 0.0
R10_r2 -0.0
R11_r2 0.0
R12_r2 -0.0
R13_r2 0.0
R14_r2 1.0
R15_r2 -0.0
v_AfterAnd_2_0 0.0
v_AfterAnd_2_1 -0.0
v_AfterAnd_2_2 0.0
v_AfterAnd_2_3 0.0
v_AfterAnd_2_4 -3.657568075570655e-15
v_AfterAnd_2_5 -0.0
v_AfterAnd_2_6 2.072416312633626e-15
v_AfterAnd_2_7 -0.0
v_AfterAnd_2_8 0.0
v_AfterAnd_2_9 0.0
v_AfterAnd_2_10 0.0
v_AfterAnd_2_11 0.0
v_AfterAnd_2_12 -0.0
v_AfterAnd_2_13 -3.657568075570655e-15
v_AfterAnd_2_14 1.0
v_AfterAnd_2_15 -0.0
S0_r2 -0.0
S1_r2 0.0
S2_r2 0.0
S3_r2 -0.0
S4_r2 -3.657568075570655e-15
S5_r2 1.0000000000000004
S6_r2 0.0
S7_r2 0.0
S8_r2 0.0
S9_r2 0.0
S10_r2 0.0
S11_r2 0.0
S12_r2 0.0
S13_r2 -3.657568075570655e-15
S14_r2 1.0000000000000004
S15_r2 0.0
L0_r3 2.072416312633626e-15
L1_r3 -0.0
L2_r3 -0.0
L3_r3 -3.657568075570655e-15
L4_r3 3.787094095110257e-15
L5_r3 3.1764714315664216e-15
L6_r3 2.072416312633626e-15
L7_r3 -4.0708177569589136e-16
L8_r3 0.0
L9_r3 0.0
L10_r3 0.0
L11_r3 -0.0
L12_r3 2.5165055224836887e-15
L13_r3 2.072416312633626e-15
L14_r3 -0.0
L15_r3 -0.0
R0_r3 -0.0
R1_r3 0.0
R2_r3 -0.0
R3_r3 0.0
R4_r3 0.0
R5_r3 -3.657568075570655e-15
R6_r3 1.0000000000000004
R7_r3 -0.0
R8_r3 0.0
R9_r3 0.0
R10_r3 0.0
R11_r3 -0.0
R12_r3 0.0
R13_r3 0.0
R14_r3 -0.0
R15_r3 -1.5851517629370295e-15
v_AfterAnd_3_0 -0.0
v_AfterAnd_3_1 0.0
v_AfterAnd_3_2 -3.213478865720593e-15
v_AfterAnd_3_3 -0.0
v_AfterAnd_3_4 2.5165055224836887e-15
v_AfterAnd_3_5 2.072416312633626e-15
v_AfterAnd_3_6 -4.0708177569589136e-16
v_AfterAnd_3_7 -3.1764714315664216e-15
v_AfterAnd_3_8 6.599659090827325e-16
v_AfterAnd_3_9 0.0
v_AfterAnd_3_10 -0.0
v_AfterAnd_3_11 2.072416312633626e-15
v_AfterAnd_3_12 0.0
v_AfterAnd_3_13 0.0
v_AfterAnd_3_14 2.072416312633626e-15
v_AfterAnd_3_15 -1.5851517629370295e-15
S0_r3 0.0
S1_r3 -0.0
S2_r3 -3.213478865720593e-15
S3_r3 3.787094095110257e-15
S4_r3 2.5165055224836887e-15
S5_r3 2.072416312633626e-15
S6_r3 -4.0708177569589136e-16
S7_r3 -0.0
S8_r3 2.072416312633626e-15
S9_r3 0.0
S10_r3 0.0
S11_r3 -3.657568075570655e-15
S12_r3 3.787094095110257e-15
S13_r3 0.0
S14_r3 2.072416312633626e-15
S15_r3 -4.0708177569589136e-16
L0_r4 -7.586524001605235e-16
L1_r4 -3.657568075570655e-15
L2_r4 -9.251858538542968e-16
L3_r4 -0.0
L4_r4 -0.0
L5_r4 1.233581138472396e-15
L6_r4 1.0
L7_r4 -3.1764714315664216e-15
L8_r4 8.820105140077637e-16
L9_r4 -0.0
L10_r4 3.096288657565715e-15
L11_r4 0.0
L12_r4 -0.0
L13_r4 -0.0
L14_r4 -0.0
L15_r4 -0.0
R0_r4 2.072416312633626e-15
R1_r4 -0.0
R2_r4 -0.0
R3_r4 -3.657568075570655e-15
R4_r4 3.787094095110257e-15
R5_r4 3.1764714315664216e-15
R6_r4 2.072416312633626e-15
R7_r4 -4.0708177569589136e-16
R8_r4 0.0
R9_r4 0.0
R10_r4 0.0
R11_r4 -0.0
R12_r4 2.5165055224836887e-15
R13_r4 2.072416312633626e-15
R14_r4 -0.0
R15_r4 -0.0
v_AfterAnd_4_0 -2.7755575615628917e-15
v_AfterAnd_4_1 0.0
v_AfterAnd_4_2 0.0
v_AfterAnd_4_3 0.0
v_AfterAnd_4_4 3.787094095110257e-15
v_AfterAnd_4_5 -0.0
v_AfterAnd_4_6 -3.1764714315664216e-15
v_AfterAnd_4_7 8.820105140077637e-16
v_AfterAnd_4_8 -2.1711028037114182e-15
v_AfterAnd_4_9 1.437122026320342e-15
v_AfterAnd_4_10 5.181040781584079e-16
v_AfterAnd_4_11 0.0
v_AfterAnd_4_12 2.892747769717769e-15
v_AfterAnd_4_13 1.233581138472396e-15
v_AfterAnd_4_14 0.0
v_AfterAnd_4_15 -3.1764714315664216e-15
S0_r4 -2.7755575615628917e-15
S1_r4 -9.251858538542968e-16
S2_r4 3.096288657565715e-15
S3_r4 0.0
S4_r4 3.787094095110257e-15
S5_r4 1.0
S6_r4 -3.1764714315664216e-15
S7_r4 8.820105140077637e-16
S8_r4 -2.1711028037114182e-15
S9_r4 -3.657568075570655e-15
S10_r4 5.181040781584079e-16
S11_r4 0.0
S12_r4 0.0
S13_r4 1.233581138472396e-15
S14_r4 1.0
S15_r4 -3.1764714315664216e-15
L0_r5 -0.0
L1_r5 -0.0
L2_r5 -0.0
L3_r5 -5.366077952354924e-15
L4_r5 1.0
L5_r5 -0.0
L6_r5 1.7640210280155273e-15
L7_r5 -1.5111368946286864e-15
L8_r5 -7.586524001605235e-16
L9_r5 1.437122026320342e-15
L10_r5 9.62193288008472e-16
L11_r5 -0.0
L12_r5 6.241920560670325e-15
L13_r5 -0.0
L14_r5 -7.586524001605235e-16
L15_r5 -7.586524001605235e-16
R0_r5 -7.586524001605235e-16
R1_r5 -3.657568075570655e-15
R2_r5 -9.251858538542968e-16
R3_r5 -0.0
R4_r5 -0.0
R5_r5 1.233581138472396e-15
R6_r5 1.0
R7_r5 -3.1764714315664216e-15
R8_r5 8.820105140077637e-16
R9_r5 -0.0
R10_r5 3.096288657565715e-15
R11_r5 0.0
R12_r5 -0.0
R13_r5 -0.0
R14_r5 -0.0
R15_r5 -0.0
v_AfterAnd_5_0 -0.0
v_AfterAnd_5_1 1.437122026320342e-15
v_AfterAnd_5_2 -3.95979545449639e-15
v_AfterAnd_5_3 -0.0
v_AfterAnd_5_4 6.241920560670325e-15
v_AfterAnd_5_5 -0.0
v_AfterAnd_5_6 -1.7701889337078895e-15
v_AfterAnd_5_7 -7.586524001605235e-16
v_AfterAnd_5_8 1.437122026320342e-15
v_AfterAnd_5_9 0.0
v_AfterAnd_5_10 0.0
v_AfterAnd_5_11 -1.1904057986258626e-15
v_AfterAnd_5_12 2.451742512713886e-16
v_AfterAnd_5_13 -7.586524001605235e-16
v_AfterAnd_5_14 5.7608239166660905e-15
v_AfterAnd_5_15 0.0
S0_r5 -7.586524001605235e-16
S1_r5 1.437122026320342e-15
S2_r5 -3.95979545449639e-15
S3_r5 1.0
S4_r5 6.241920560670325e-15
S5_r5 1.7640210280155273e-15
S6_r5 -1.7701889337078895e-15
S7_r5 -7.586524001605235e-16
S8_r5 1.437122026320342e-15
S9_r5 9.62193288008472e-16
S10_r5 0.0
S11_r5 -5.366077952354924e-15
S12_r5 1.0
S13_r5 -7.586524001605235e-16
S14_r5 1.7640210280155273e-15
S15_r5 -1.5111368946286864e-15
L0_r6 -0.0
L1_r6 -3.090120751873353e-15
L2_r6 1.000000000000006
L3_r6 0.0
L4_r6 -7.586524001605235e-16
L5_r6 -2.473330182637155e-15
L6_r6 1.0000000000000024
L7_r6 -1.9984014443252826e-15
L8_r6 -1.5789838572446652e-15
L9_r6 -0.0
L10_r6 -7.586524001605235e-16
L11_r6 -1.3014281010883783e-15
L12_r6 -0.0
L13_r6 -0.0
L14_r6 5.7608239166660905e-15
L15_r6 0.0
R0_r6 -0.0
R1_r6 -0.0
R2_r6 -0.0
R3_r6 -5.366077952354924e-15
R4_r6 1.0
R5_r6 -0.0
R6_r6 1.7640210280155273e-15
R7_r6 -1.5111368946286864e-15
R8_r6 -7.586524001605235e-16
R9_r6 1.437122026320342e-15
R10_r6 9.62193288008472e-16
R11_r6 -0.0
R12_r6 6.241920560670325e-15
R13_r6 -0.0
R14_r6 -7.586524001605235e-16
R15_r6 -7.586524001605235e-16
v_AfterAnd_6_0 3.824101529264436e-16
v_AfterAnd_6_1 0.0
v_AfterAnd_6_2 -7.586524001605235e-16
v_AfterAnd_6_3 -2.0045693500176443e-15
v_AfterAnd_6_4 -2.473330182637155e-15
v_AfterAnd_6_5 -1.9984014443252826e-15
v_AfterAnd_6_6 3.3183332624907457e-15
v_AfterAnd_6_7 -1.5111368946286864e-15
v_AfterAnd_6_8 0.0
v_AfterAnd_6_9 -2.794061278639978e-15
v_AfterAnd_6_10 9.62193288008472e-16
v_AfterAnd_6_11 0.0
v_AfterAnd_6_12 -7.586524001605235e-16
v_AfterAnd_6_13 -0.0
v_AfterAnd_6_14 -7.586524001605235e-16
v_AfterAnd_6_15 -1.9984014443252826e-15
S0_r6 3.824101529264436e-16
S1_r6 1.000000000000006
S2_r6 -7.586524001605235e-16
S3_r6 -2.0045693500176443e-15
S4_r6 -2.473330182637155e-15
S5_r6 1.0000000000000024
S6_r6 3.3183332624907457e-15
S7_r6 -1.5789838572446652e-15
S8_r6 -0.0
S9_r6 -3.090120751873353e-15
S10_r6 1.000000000000006
S11_r6 0.0
S12_r6 -7.586524001605235e-16
S13_r6 -2.473330182637155e-15
S14_r6 1.0000000000000024
S15_r6 -1.9984014443252826e-15
L0_r7 1.0000000000000067
L1_r7 -0.0
L2_r7 -0.0
L3_r7 0.0
L4_r7 -0.0
L5_r7 0.0
L6_r7 0.0
L7_r7 -0.0
L8_r7 0.0
L9_r7 0.0
L10_r7 -0.0
L11_r7 -0.0
L12_r7 -0.0
L13_r7 -0.0
L14_r7 -0.0
L15_r7 0.0
R0_r7 -0.0
R1_r7 -3.090120751873353e-15
R2_r7 1.000000000000006
R3_r7 0.0
R4_r7 -7.586524001605235e-16
R5_r7 -2.473330182637155e-15
R6_r7 1.0000000000000024
R7_r7 -1.9984014443252826e-15
R8_r7 -1.5789838572446652e-15
R9_r7 -0.0
R10_r7 -7.586524001605235e-16
R11_r7 -1.3014281010883783e-15
R12_r7 -0.0
R13_r7 -0.0
R14_r7 5.7608239166660905e-15
R15_r7 0.0
v_AfterAnd_7_0 0.0
v_AfterAnd_7_1 0.0
v_AfterAnd_7_2 -0.0
v_AfterAnd_7_3 -0.0
v_AfterAnd_7_4 -0.0
v_AfterAnd_7_5 -0.0
v_AfterAnd_7_6 -0.0
v_AfterAnd_7_7 -0.0
v_AfterAnd_7_8 -0.0
v_AfterAnd_7_9 -0.0
v_AfterAnd_7_10 -0.0
v_AfterAnd_7_11 -0.0
v_AfterAnd_7_12 -0.0
v_AfterAnd_7_13 0.0
v_AfterAnd_7_14 0.0
v_AfterAnd_7_15 0.0
S0_r7 -0.0
S1_r7 0.0
S2_r7 0.0
S3_r7 0.0
S4_r7 0.0
S5_r7 0.0
S6_r7 0.0
S7_r7 -0.0
S8_r7 1.0000000000000067
S9_r7 0.0
S10_r7 0.0
S11_r7 -0.0
S12_r7 0.0
S13_r7 0.0
S14_r7 0.0
S15_r7 1.0000000000000067
L0_r8 -0.0
L1_r8 -3.090120751873353e-15
L2_r8 1.000000000000006
L3_r8 -0.0
L4_r8 7.586524001605235e-16
L5_r8 -2.473330182637155e-15
L6_r8 1.0000000000000024
L7_r8 -1.9984014443252826e-15
L8_r8 -1.5789838572446652e-15
L9_r8 0.0
L10_r8 -7.586524001605235e-16
L11_r8 -1.3014281010883783e-15
L12_r8 -0.0
L13_r8 0.0
L14_r8 1.0
L15_r8 -0.0
R0_r8 1.0000000000000067
R1_r8 -0.0
R2_r8 -0.0
R3_r8 0.0
R4_r8 -0.0
R5_r8 0.0
R6_r8 0.0
R7_r8 -0.0
R8_r8 0.0
R9_r8 0.0
R10_r8 -0.0
R11_r8 -0.0
R12_r8 -0.0
R13_r8 -0.0
R14_r8 -0.0
R15_r8 0.0
